\ LP format - for model browsing. Use MPS format to capture full model detail.
Minimize
  x_0 + x_1 + x_2 + x_3 + x_4
Subject To
 R0: x_0 + x_1 >= 1
 R1: x_1 + x_2 >= 1
 R2: x_1 + x_4 >= 1
 R3: x_2 + x_3 >= 1
 R4: x_2 + x_4 >= 1
 R5: x_3 + x_4 >= 1
Bounds
Binaries
 x_0 x_1 x_2 x_3 x_4
End
